161
1000000
10125
334291
747180
107262
298042
324530
368769
74327
117401
556026
587596
555899
39771
306701
690856
757785
170953
184685
470
524720
67752
301809
533185
94828
589176
851981
333168
10535
898084
48529
164914
142404
347909
24201
521923
619250
449440
75225
60915
217988
198527
314333
597853
829047
42426
413948
299289
267111
443974
1694
782012
49159
490958
266467
184380
201351
442353
102440
71436
882599
857596
552487
998306
815315
734540
866750
4940
173810
91831
764862
212273
137552
444249
892268
694054
840963
275153
159037
685667
853755
271374
808957
64793
144344
5040
82428
238239
52373
136986
826190
908808
20894
466815
123522
509187
81574
475289
519008
235138
75043
453975
384273
177666
384630
141977
822677
265460
615727
447513
822334
665709
133250
480992
252820
173471
153126
279186
857921
490813
141032
206363
150516
232743
93872
459421
127585
66991
191043
856374
897560
724847
91115
223199
444101
424945
586052
359625
20104
461892
69627
561542
478077
663906
243850
148019
148883
65290
985432
756150
273838
310873
14568
638602
379310
307319
263521
559775
484100
309314
19488
462244
